(set-info :smt-lib-version 2.6)
(set-logic QF_SLIA)
(set-info :source |
Generated by: Dmitry Blotsky1, Federico Mora, Murphy Berzish, Yunhui Zheng, Ifaz Kabir, Vijay Ganesh, Zhengyang Lu
Generated on: 2018-01-24
Generator: StringFuzz
Application: Evaluate string solvers
Target solver: Z3str3, CVC4, Z3str2, Norn
Publications: Blotsky, D., Mora, F., Berzish, M., Zheng, Y., Kabir, I., & Ganesh, V. (2018). Stringfuzz: A fuzzer for string solvers. In CAV 2018.
Description: transformed by StringFuzz, a modular string and regex fuzzer, from an industrial benchmark
|)
(set-info :license "https://creativecommons.org/licenses/by/4.0/")
(set-info :category "random")
(set-info :status unknown)

(declare-const x String)
(declare-const y String)
(assert (= x "aaa~o'b0x\\'Y'c0x\\'fo0Ol)z_b0gaa0'r\\'GLiIuC6Q)>bz,h)er+gWnjCa,5jJ`Z,8D|V'n\\'uN4jXgp{<[Zvaa1Dr!*yX_P"))
(assert (str.in_re x (re.* (str.to_re "d<ht+'c0x\\'2?E>'b0x\\';hRI,9>s]"))))
(check-sat)

(exit)
